45
16
3
13 3
9 1
10 0
7 2
10 0
13 2
4 1
3 3
2 0
16 1
1 2
11 1
4 3
13 1
3 1
4 3
2 3
13 2
15 0
1 0
7 0
7 2
5 2
10 3
3 3
3 1
3 3
6 0
7 1
1 0
7 3
4 1
10 3
8 3
13 2
2 3
1 2
8 0
5 3
8 0
3 2
13 3
7 2
4 2
16 0
